proyfinal/src/viki/013/andrea/andrea-localstore/experimentInOfficeAgust.take6/worker_8/d2ae9221-09cf-421f-ac77-af0aadd7f380.als.cnf.out
Reading from standard input... Use '--help' for help.
============================[ Problem Statistics ]=============================
|                                                                             |
|  Number of variables:         87638                                         |
|  Number of clauses:          161767                                         |
|  Parse time:                   0.02 s                                       |
|                                                                             |
============================[ Search Statistics ]==============================
| Conflicts |          ORIGINAL         |          LEARNT          | Progress |
|           |    Vars  Clauses Literals |    Limit  Clauses Lit/Cl |          |
===============================================================================
|       100 |   62851   107122   267067 |    39278      100      6 | 28.283 % |
|       250 |   62851   107122   267067 |    43205      250     21 | 28.283 % |
|       475 |   62851   107122   267067 |    47526      475     39 | 28.283 % |
|       812 |   62851   107122   267067 |    52279      812     64 | 28.283 % |
|      1318 |   62851   107122   267067 |    57507     1318     71 | 28.283 % |
|      2077 |   62851   107122   267067 |    63257     2077     75 | 28.283 % |
|      3216 |   62851   107122   267067 |    69583     3216     78 | 28.283 % |
|      4924 |   62851   107122   267067 |    76541     4924     76 | 28.283 % |
|      7486 |   62833   107048   266896 |    84196     7484     88 | 28.304 % |
|     11330 |   62833   107048   266896 |    92615    11328     90 | 28.304 % |
===============================================================================
restarts              : 63
conflicts             : 17028          (7922 /sec)
decisions             : 62023          (0.00 % random) (28855 /sec)
propagations          : 21838694       (10160150 /sec)
conflict literals     : 1532630        (49.72 % deleted)
Memory used           : 37.04 MB
CPU time              : 2.14945 s

UNSATISFIABLE
